Input: ticf-14crafa.prec25.dzn
============================================================
Total Runtime: 6.3046 seconds
Input parsing: 0.0293 seconds
Constraint building: 1.2722 seconds
MaxSAT solving: 4.1247 seconds
============================================================

Total variables: 324136
Total clauses: 682640
MaxSAT found with cost: 0
NO SOLUTION FOUND
